10
5
1775831242
0
0
31 147 37 35 11
1
0
47 48 36 50 52
2
0
62 34 10 36 30
3
0
111 2 10 103 22
4
0
26 64 2 35 22
5
0
88 4 49 97 16
6
0
25 40 143 44 23
7
0
59 3 23 4 45
8
0
24 41 27 99 31
9
0
13 127 72 70 64
